tsp_instances/TSP50/instance50.tsp
NODE_COORD_SECTION
0 161 153
1 11 153
2 72 177
3 98 4
4 200 103
5 9 18
6 155 114
7 7 10
8 69 150
9 145 195
10 3 178
11 154 74
12 188 155
13 171 174
14 78 97
15 131 37
16 82 34
17 17 187
18 151 3
19 16 20
20 26 97
21 173 183
22 15 185
23 28 0
24 18 165
25 46 156
26 157 23
27 125 69
28 23 130
29 200 87
30 34 91
31 51 4
32 145 61
33 115 95
34 160 104
35 78 106
36 176 38
37 169 80
38 173 123
39 163 182
40 147 11
41 42 71
42 57 87
43 56 53
44 15 153
45 116 181
46 185 133
47 95 11
48 142 100
49 161 50
