tsp_instances/TSP50/instance50.opt.tour
TOUR_SECTION
1
13
47
39
7
49
35
5
30
38
12
33
50
37
27
19
41
16
28
34
36
15
43
44
17
48
4
32
24
8
6
20
42
31
21
29
45
2
25
11
23
18
26
9
3
46
10
40
22
14
-1